Test: battleship-10-17-sat.cnf
Options: 
WARNING: for repeatability, setting FPU to use double precision
============================[ Problem Statistics ]=============================
|                                                                             |
|  Number of symmetries:           12                                         |
|  Number of invertingSyms:         0                                         |
|  Number of variables:           170                                         |
|  Number of clauses:             865                                         |
|  Parse time:                   0.00 s                                       |
|                                                                             |
============================[ Search Statistics ]==============================
| Conflicts |          ORIGINAL         |          LEARNT          | Progress |
|           |    Vars  Clauses Literals |    Limit  Clauses Lit/Cl |          |
===============================================================================
|       100 |     170      865     3230 |      317      155     79 |  0.003 % |
|       250 |     170      865     3230 |      348      315     70 |  0.003 % |
|       475 |     170      865     3230 |      383      354     58 |  0.003 % |
|       812 |     170      865     3230 |      422      320     50 |  0.003 % |
|      1318 |     170      865     3230 |      464      412     50 |  0.003 % |
|      2077 |     170      865     3230 |      510      336     47 |  0.003 % |
|      3216 |     170      865     3230 |      561      267     50 |  0.003 % |
|      4924 |     170      865     3230 |      618      470     54 |  0.003 % |
|      7486 |     170      865     3230 |      679      565     56 |  0.003 % |
|     11330 |     170      865     3230 |      747      461     52 |  0.003 % |
|     17096 |     170      865     3230 |      822      731     54 |  0.003 % |
|     25745 |     170      865     3230 |      904      714     56 |  0.003 % |
|     38719 |     170      865     3230 |      995      852     56 |  0.003 % |
|     58180 |     170      865     3230 |     1094      931     66 |  0.003 % |
|     87372 |     170      865     3230 |     1204      732     49 |  0.003 % |
===============================================================================
restarts              : 255
conflicts             : 92502          (56677 /sec)
symconflicts          : 4209           (2579 /sec)
decisions             : 143459         (0.00 % random) (87898 /sec)
propagations          : 1680128        (1029426 /sec)
sympropagations       : 20003          (12256 /sec)
conflict literals     : 6127988        (5.37 % deleted)
literals     : 6127988        (5.37 % deleted)

HEURISTIC USAGES
random                : 0           
activity w/ lookahead : 0           
activity no lookahead : 0           
original sp           : 143458      
sym count             : 0           

Memory used           : 6.00 MB
CPU time              : 1.6321 s

SATISFIABLE
